Geographic Exponential Decay
20 237 1 300 234 255 144 202 238 75 176 174 173 49 146 282 249 61 166 129 106
p edge 320 617
e 0 170 6.0
e 0 145 4.0
e 0 128 11.0
e 1 83 55.0
e 1 173 68.0
e 1 39 86.0
e 1 260 88.0
e 1 193 73.0
e 1 18 47.0
e 1 84 69.0
e 1 290 63.0
e 1 316 100.0
e 1 31 26.0
e 1 293 30.0
e 1 88 43.0
e 1 98 88.0
e 1 302 80.0
e 1 283 44.0
e 1 79 78.0
e 1 89 27.0
e 2 145 3.0
e 3 148 11.0
e 4 180 12.0
e 5 12 2.0
e 6 116 1.0
e 7 135 5.0
e 8 312 6.0
e 8 276 6.0
e 9 151 1.0
e 10 86 1.0
e 11 95 2.0
e 11 104 4.0
e 12 124 10.0
e 12 245 7.0
e 13 151 17.0
e 13 313 1.0
e 13 91 19.0
e 13 275 1.0
e 13 106 40.0
e 14 184 4.0
e 15 114 2.0
e 16 42 6.0
e 17 141 15.0
e 18 34 4.0
e 19 207 9.0
e 20 45 1.0
e 20 0 6.0
e 21 71 7.0
e 22 50 1.0
e 23 227 1.0
e 24 9 1.0
e 25 238 95.0
e 26 54 1.0
e 26 240 5.0
e 27 28 2.0
e 29 251 3.0
e 30 136 5.0
e 32 236 2.0
e 33 215 8.0
e 35 75 54.0
e 35 182 10.0
e 35 194 7.0
e 36 243 3.0
e 36 140 1.0
e 36 104 1.0
e 37 132 2.0
e 38 277 5.0
e 38 247 2.0
e 40 149 3.0
e 41 276 1.0
e 42 277 5.0
e 43 143 1.0
e 43 102 2.0
e 44 256 1.0
e 46 208 26.0
e 46 101 1.0
e 46 308 19.0
e 46 194 12.0
e 46 50 31.0
e 46 69 48.0
e 46 24 42.0
e 46 276 47.0
e 46 56 30.0
e 47 253 1.0
e 47 274 8.0
e 47 31 4.0
e 48 178 1.0
e 48 117 2.0
e 48 136 6.0
e 49 1 26.0
e 49 203 80.0
e 49 275 3.0
e 49 251 56.0
e 49 178 85.0
e 49 199 62.0
e 49 309 93.0
e 49 90 92.0
e 49 236 83.0
e 49 181 5.0
e 49 91 65.0
e 49 114 34.0
e 49 317 18.0
e 49 234 91.0
e 49 14 11.0
e 49 213 48.0
e 49 252 24.0
e 51 34 1.0
e 52 17 1.0
e 53 55 1.0
e 54 96 4.0
e 55 56 6.0
e 57 32 24.0
e 57 201 24.0
e 57 72 3.0
e 57 168 22.0
e 57 21 19.0
e 58 65 1.0
e 59 151 1.0
e 60 138 11.0
e 61 97 54.0
e 61 214 7.0
e 61 255 30.0
e 61 104 71.0
e 61 238 19.0
e 61 196 26.0
e 61 230 93.0
e 61 137 6.0
e 61 279 76.0
e 61 232 19.0
e 61 152 7.0
e 61 311 100.0
e 61 149 95.0
e 61 43 71.0
e 61 302 55.0
e 61 217 10.0
e 61 98 98.0
e 62 138 10.0
e 63 255 27.0
e 63 25 5.0
e 64 229 1.0
e 66 78 14.0
e 66 252 17.0
e 66 253 1.0
e 66 83 12.0
e 66 313 9.0
e 67 175 1.0
e 68 63 3.0
e 69 1 78.0
e 69 12 12.0
e 70 309 7.0
e 71 277 2.0
e 71 56 1.0
e 73 102 7.0
e 73 5 1.0
e 74 286 5.0
e 74 85 1.0
e 75 219 37.0
e 75 152 4.0
e 75 70 36.0
e 75 253 76.0
e 75 165 93.0
e 75 162 53.0
e 75 91 86.0
e 75 302 18.0
e 75 227 95.0
e 75 256 43.0
e 75 55 34.0
e 75 106 50.0
e 75 261 26.0
e 75 123 89.0
e 75 56 13.0
e 75 22 62.0
e 76 126 1.0
e 77 289 12.0
e 77 180 2.0
e 80 64 3.0
e 80 316 5.0
e 81 248 34.0
e 81 183 23.0
e 81 202 26.0
e 81 41 42.0
e 81 115 26.0
e 81 221 44.0
e 81 254 33.0
e 81 121 34.0
e 81 70 7.0
e 82 98 1.0
e 87 159 1.0
e 87 20 1.0
e 90 215 5.0
e 90 192 11.0
e 91 8 1.0
e 91 184 18.0
e 92 171 4.0
e 92 189 5.0
e 93 97 2.0
e 94 317 13.0
e 99 38 3.0
e 100 51 1.0
e 100 240 5.0
e 102 111 1.0
e 103 205 1.0
e 104 88 18.0
e 104 117 20.0
e 105 84 5.0
e 105 221 1.0
e 106 55 74.0
e 106 152 28.0
e 106 266 61.0
e 106 151 16.0
e 106 258 8.0
e 106 85 26.0
e 106 158 71.0
e 106 39 24.0
e 106 154 44.0
e 106 21 40.0
e 106 228 22.0
e 106 272 24.0
e 106 71 27.0
e 106 313 37.0
e 106 77 32.0
e 107 216 4.0
e 108 188 6.0
e 108 312 2.0
e 109 107 2.0
e 110 156 12.0
e 112 315 5.0
e 112 138 8.0
e 113 304 18.0
e 114 316 11.0
e 115 304 4.0
e 116 265 3.0
e 118 270 1.0
e 119 98 1.0
e 120 240 1.0
e 120 158 6.0
e 122 213 1.0
e 125 318 6.0
e 125 189 1.0
e 127 79 1.0
e 129 272 95.0
e 129 51 37.0
e 129 221 31.0
e 129 152 70.0
e 129 21 93.0
e 129 312 31.0
e 129 179 57.0
e 129 292 72.0
e 129 70 86.0
e 129 141 2.0
e 129 231 80.0
e 129 143 6.0
e 129 13 52.0
e 129 242 52.0
e 129 227 11.0
e 129 17 62.0
e 129 211 65.0
e 130 191 3.0
e 130 306 4.0
e 131 233 3.0
e 133 266 2.0
e 134 57 4.0
e 135 33 3.0
e 137 8 1.0
e 139 10 7.0
e 139 79 9.0
e 139 142 7.0
e 140 129 46.0
e 140 83 3.0
e 141 100 10.0
e 141 40 14.0
e 141 69 13.0
e 142 40 3.0
e 142 128 1.0
e 144 224 16.0
e 144 313 3.0
e 144 195 15.0
e 144 311 24.0
e 144 316 54.0
e 144 71 28.0
e 144 175 63.0
e 144 237 36.0
e 144 11 71.0
e 144 80 55.0
e 144 26 8.0
e 144 106 30.0
e 144 305 79.0
e 144 126 81.0
e 144 317 79.0
e 144 110 69.0
e 144 282 5.0
e 146 144 2.0
e 146 55 3.0
e 146 175 67.0
e 146 272 48.0
e 146 134 72.0
e 146 161 43.0
e 146 37 28.0
e 146 230 35.0
e 146 180 3.0
e 146 236 28.0
e 146 305 95.0
e 146 303 4.0
e 146 17 84.0
e 146 81 46.0
e 146 300 45.0
e 146 32 53.0
e 146 178 86.0
e 147 282 87.0
e 147 299 4.0
e 148 15 8.0
e 148 154 12.0
e 148 312 18.0
e 148 219 7.0
e 150 89 2.0
e 150 292 9.0
e 150 14 7.0
e 153 122 1.0
e 155 39 4.0
e 155 230 4.0
e 156 24 18.0
e 156 157 21.0
e 156 57 14.0
e 156 205 12.0
e 157 222 6.0
e 160 265 12.0
e 163 6 7.0
e 163 135 1.0
e 163 289 9.0
e 164 260 1.0
e 166 169 78.0
e 166 103 70.0
e 166 203 16.0
e 166 11 12.0
e 166 22 2.0
e 166 237 13.0
e 166 14 79.0
e 166 42 51.0
e 166 272 21.0
e 166 113 32.0
e 166 54 5.0
e 166 221 47.0
e 166 245 4.0
e 166 0 8.0
e 166 18 75.0
e 166 146 38.0
e 166 208 74.0
e 167 252 4.0
e 167 168 3.0
e 172 183 1.0
e 172 123 3.0
e 172 266 12.0
e 172 7 9.0
e 172 46 20.0
e 173 264 14.0
e 173 172 97.0
e 173 308 41.0
e 173 217 28.0
e 173 289 46.0
e 173 60 34.0
e 173 61 60.0
e 173 182 23.0
e 173 254 12.0
e 173 0 45.0
e 173 144 46.0
e 173 258 74.0
e 173 22 90.0
e 173 222 42.0
e 173 69 4.0
e 173 255 92.0
e 174 316 8.0
e 174 206 47.0
e 174 311 90.0
e 174 110 4.0
e 174 122 51.0
e 174 202 93.0
e 174 23 81.0
e 174 108 100.0
e 174 253 67.0
e 174 101 15.0
e 174 9 62.0
e 174 144 12.0
e 174 19 13.0
e 174 304 26.0
e 174 125 79.0
e 174 131 2.0
e 174 269 69.0
e 176 18 56.0
e 176 27 81.0
e 176 47 35.0
e 176 143 90.0
e 176 99 82.0
e 176 145 89.0
e 176 53 98.0
e 176 317 26.0
e 176 291 53.0
e 176 10 68.0
e 176 124 10.0
e 176 68 40.0
e 176 259 8.0
e 176 231 96.0
e 176 301 8.0
e 176 196 35.0
e 176 296 75.0
e 177 317 2.0
e 185 72 1.0
e 186 185 1.0
e 187 145 3.0
e 188 107 1.0
e 190 318 4.0
e 190 293 4.0
e 193 259 3.0
e 197 290 5.0
e 198 179 1.0
e 198 257 10.0
e 198 156 12.0
e 200 267 11.0
e 200 243 4.0
e 200 261 1.0
e 201 225 20.0
e 202 48 69.0
e 202 109 83.0
e 202 217 15.0
e 202 122 79.0
e 202 133 97.0
e 202 300 75.0
e 202 71 82.0
e 202 298 31.0
e 202 40 36.0
e 202 82 1.0
e 202 15 1.0
e 202 112 72.0
e 202 59 58.0
e 202 41 79.0
e 202 175 90.0
e 204 126 2.0
e 207 2 11.0
e 207 183 1.0
e 209 229 3.0
e 209 264 8.0
e 209 237 3.0
e 210 135 1.0
e 212 128 3.0
e 214 12 25.0
e 214 76 34.0
e 214 123 33.0
e 214 224 29.0
e 214 193 4.0
e 214 69 44.0
e 214 209 7.0
e 214 269 30.0
e 215 94 7.0
e 216 15 2.0
e 218 49 59.0
e 220 254 1.0
e 222 282 40.0
e 222 265 1.0
e 222 75 18.0
e 223 30 3.0
e 223 204 3.0
e 225 26 12.0
e 225 48 24.0
e 225 88 4.0
e 225 127 2.0
e 226 225 5.0
e 228 303 10.0
e 228 182 9.0
e 233 235 10.0
e 233 150 1.0
e 234 289 88.0
e 234 150 90.0
e 234 123 99.0
e 234 120 4.0
e 234 79 23.0
e 234 19 64.0
e 234 202 14.0
e 234 65 79.0
e 234 245 55.0
e 234 47 20.0
e 234 292 28.0
e 234 157 91.0
e 234 80 20.0
e 234 178 81.0
e 234 235 89.0
e 234 196 95.0
e 237 167 11.0
e 237 72 89.0
e 237 287 30.0
e 237 271 77.0
e 237 302 43.0
e 237 292 97.0
e 237 100 69.0
e 237 13 12.0
e 237 248 34.0
e 237 63 48.0
e 237 264 18.0
e 237 251 60.0
e 237 176 76.0
e 237 128 63.0
e 238 93 95.0
e 238 6 36.0
e 238 164 66.0
e 238 28 91.0
e 238 244 18.0
e 238 150 52.0
e 238 240 51.0
e 238 310 92.0
e 238 78 55.0
e 238 57 80.0
e 238 171 68.0
e 238 173 21.0
e 238 90 31.0
e 238 157 12.0
e 238 314 84.0
e 239 145 6.0
e 239 297 4.0
e 241 291 2.0
e 241 136 5.0
e 244 160 10.0
e 244 261 6.0
e 246 190 1.0
e 246 278 1.0
e 249 185 40.0
e 249 179 68.0
e 249 2 43.0
e 249 65 76.0
e 249 131 27.0
e 249 162 62.0
e 249 82 18.0
e 249 306 88.0
e 249 61 3.0
e 249 77 65.0
e 249 305 90.0
e 249 283 88.0
e 249 258 56.0
e 249 198 65.0
e 249 137 27.0
e 249 188 85.0
e 249 95 78.0
e 250 302 3.0
e 250 92 8.0
e 250 313 4.0
e 255 279 77.0
e 255 37 25.0
e 255 41 46.0
e 255 186 26.0
e 255 125 87.0
e 255 249 73.0
e 255 250 74.0
e 255 42 27.0
e 255 220 67.0
e 255 73 78.0
e 255 254 65.0
e 255 259 25.0
e 255 129 8.0
e 255 242 80.0
e 257 126 3.0
e 257 33 11.0
e 262 232 1.0
e 263 2 2.0
e 263 110 4.0
e 268 221 11.0
e 268 142 4.0
e 269 155 2.0
e 271 112 1.0
e 273 210 1.0
e 280 277 3.0
e 280 99 1.0
e 281 46 8.0
e 282 154 61.0
e 282 184 46.0
e 282 111 75.0
e 282 0 30.0
e 282 44 82.0
e 282 221 59.0
e 282 236 65.0
e 282 237 87.0
e 282 196 81.0
e 282 16 36.0
e 282 92 84.0
e 282 176 3.0
e 282 114 99.0
e 282 138 57.0
e 284 255 23.0
e 285 286 1.0
e 288 58 2.0
e 288 25 5.0
e 294 262 2.0
e 295 242 6.0
e 295 210 11.0
e 295 228 8.0
e 297 176 8.0
e 297 12 6.0
e 300 299 59.0
e 300 259 45.0
e 300 266 37.0
e 300 256 31.0
e 300 49 95.0
e 300 303 13.0
e 300 77 77.0
e 300 226 61.0
e 300 233 73.0
e 300 250 43.0
e 300 192 23.0
e 300 166 87.0
e 300 304 31.0
e 300 16 49.0
e 300 295 3.0
e 304 1 100.0
e 307 270 10.0
e 307 161 16.0
e 307 255 83.0
e 307 218 1.0
e 307 61 89.0
e 309 80 7.0
e 319 205 4.0
e 319 73 3.0
